0 3457
3 3441
4 3358
7 3353
8 3325
10 3255
12 3200
21 3167
22 3143
24 3114
25 3112
27 3095
31 3092
33 3069
43 3065
45 3036
49 3035
101 2993
103 2983
104 2964
192 2908
194 2900
270 2895
281 2858
307 2845
314 2844
319 2827
334 2821
338 2818
345 2807
348 2801
362 2798
418 2789
454 2780
499 2770
517 2767
550 2752
9279 2750
9408 2748
10867 2746
12384 2741
12412 2740
13437 2729
25889 2724
